20 90
0 1 69.6
0 2 60.7
0 3 33.0
0 4 7.8
0 5 41.6
0 6 52.4
0 7 41.7
0 8 64.9
0 9 24.0
0 10 65.3
0 11 14.7
0 12 15.6
0 13 43.8
0 14 37.9
0 15 62.7
0 16 74.9
0 17 60.1
0 18 36.8
0 19 44.0
1 2 51.9
1 3 98.8
1 4 75.9
1 5 79.9
1 6 44.6
1 7 69.7
1 8 24.5
1 9 77.6
1 10 69.6
1 11 73.7
1 12 71.4
1 13 41.9
1 14 67.3
1 15 50.5
1 16 5.7
1 17 68.8
1 18 101.5
1 19 33.9
2 3 93.2
2 4 62.0
2 5 40.6
2 6 10.5
2 7 29.8
2 8 69.4
2 9 50.5
2 10 17.8
2 11 53.5
2 12 50.7
2 13 19.8
2 14 84.9
2 15 87.9
2 16 56.6
2 17 98.9
2 18 74.8
2 19 26.6
3 4 31.4
3 5 66.5
3 6 85.3
3 7 70.5
3 8 88.4
3 9 47.9
3 10 95.7
3 11 41.0
3 12 43.5
3 13 76.8
3 14 43.7
3 15 76.6
3 16 103.7
3 17 64.8
3 18 40.3
3 19 76.7
4 5 37.6
4 6 54.6
4 7 39.6
4 8 72.5
4 9 18.9
4 10 64.4
4 11 10.2
4 12 12.3
4 13 46.7
4 14 44.7
4 15 70.5
4 16 81.4
4 17 67.2
4 18 29.0
4 19 48.3
5 6 39.7
5 7 11.1
5 8 87.6
5 9 18.9
5 10 33.4
5 11 27.5
5 12 26.1
5 13 38.4
5 14 78.2
5 15 95.9
5 16 85.5
5 17 98.7
5 18 36.7
5 19 46.0
6 7 28.6
6 8 60.0
6 9 45.6
6 10 26.0
6 11 47.0
6 12 44.2
6 13 9.6
6 14 74.7
6 15 77.6
6 16 49.7
6 17 88.4
6 18 70.8
6 19 16.3
7 8 79.2
7 9 23.3
7 10 25.5
7 11 29.6
7 12 27.3
7 13 27.9
7 14 75.6
7 15 89.8
7 16 75.3
7 17 94.7
7 18 45.6
7 19 36.0
8 9 80.0
8 10 86.0
8 11 73.6
8 12 72.0
8 13 53.9
8 14 49.9
8 15 26.5
8 16 25.1
8 17 46.0
8 18 100.8
8 19 45.0
9 10 48.8
9 11 9.3
9 12 9.0
9 13 40.3
9 14 61.7
9 15 83.4
9 16 83.3
9 17 83.4
9 18 25.3
9 19 45.2
10 11 54.6
10 12 52.1
10 13 33.1
10 14 95.2
10 15 102.6
10 16 74.4
10 17 111.6
10 18 70.0
10 19 41.6
11 12 2.8
11 13 40.1
11 14 52.5
11 15 75.2
11 16 79.3
11 17 74.3
11 18 27.9
11 19 43.2
12 13 37.3
12 14 52.9
12 15 74.5
12 16 77.1
12 17 74.4
12 18 30.1
12 19 40.6
13 14 65.2
13 15 69.5
13 16 47.4
13 17 79.4
13 18 65.6
13 19 8.9
14 15 33.2
14 16 70.9
14 17 22.9
14 18 71.4
14 19 60.0
15 16 51.6
15 17 20.5
15 18 99.3
15 19 61.4
16 17 70.7
16 18 107.2
16 19 39.5
17 18 94.3
17 19 72.4
18 19 70.2
